# Objective value = 1.9187171020347998e+03
x[0] 0
x[1] 1
x[2] 0
x[3] 0
x[4] 0
x[5] 1
x[6] 1
x[7] 0
x[8] 0
x[9] 0
x[10] 1
x[11] 0
x[12] 1
x[13] 1
x[14] 1
x[15] 1
x[16] 1
x[17] 1
x[18] 0
x[19] 1
x[20] 1
x[21] 0
x[22] 1
x[23] 1
x[24] 0
x[25] 1
x[26] 0
x[27] 1
x[28] 0
x[29] 1
x[30] 0
x[31] 1
x[32] 1
x[33] 0
x[34] 0
x[35] 1
x[36] 1
x[37] 0
x[38] 0
x[39] 0
x[40] 0
x[41] 0
x[42] 0
x[43] 1
x[44] 0
x[45] 1
x[46] 1
x[47] 0
x[48] 1
x[49] 1
x[50] 1
x[51] 1
x[52] 1
x[53] 0
x[54] 1
x[55] 0
x[56] 1
x[57] 0
x[58] 0
x[59] 1
x[60] 0
x[61] 0
x[62] 0
x[63] 0
x[64] 0
x[65] 0
x[66] 1
x[67] 0
x[68] 1
x[69] 1
x[70] 1
x[71] 1
x[72] 1
x[73] 0
x[74] 0
x[75] 1
x[76] 0
x[77] 0
x[78] 0
x[79] 1
x[80] 1
x[81] 0
x[82] 1
x[83] 1
x[84] 0
x[85] 0
x[86] 1
x[87] 0
x[88] 1
x[89] 0
x[90] 1
x[91] 0
x[92] 1
x[93] 1
x[94] 0
x[95] 0
x[96] 0
x[97] 1
x[98] 1
x[99] 0
x[100] 1
x[101] 0
x[102] 1
x[103] 1
x[104] 1
x[105] 0
x[106] 1
x[107] 1
x[108] 1
x[109] 0
x[110] 1
x[111] 1
x[112] 0
x[113] 1
x[114] 1
x[115] 1
x[116] 0
x[117] 0
x[118] 0
x[119] 0
x[120] 0
x[121] 1
x[122] 0
x[123] 1
x[124] 0
x[125] 1
x[126] 0
x[127] 0
x[128] 0
x[129] 0
x[130] 1
x[131] 1
x[132] 0
x[133] 1
x[134] 1
x[135] 0
x[136] 1
x[137] 1
x[138] 0
x[139] 1
x[140] 1
x[141] 1
x[142] 0
x[143] 0
x[144] 1
x[145] 0
x[146] 1
x[147] 0
x[148] 0
x[149] 1
x[150] 1
x[151] 0
x[152] 1
x[153] 1
x[154] 0
x[155] 0
x[156] 1
x[157] 1
x[158] 0
x[159] 0
x[160] 1
x[161] 1
x[162] 1
x[163] 1
x[164] 0
x[165] 0
x[166] 1
x[167] 0
x[168] 1
x[169] 1
x[170] 0
x[171] 0
x[172] 1
x[173] 1
x[174] 1
x[175] 1
x[176] 0
x[177] 1
x[178] 0
x[179] 0
x[180] 1
x[181] 1
x[182] 1
x[183] 0
x[184] 0
x[185] 1
x[186] 1
x[187] 1
x[188] 0
x[189] 0
x[190] 0
x[191] 0
x[192] 0
x[193] 1
x[194] 0
x[195] 0
x[196] 1
x[197] 1
x[198] 0
x[199] 0
x[200] 0
x[201] 0
x[202] 0
x[203] 1
x[204] 1
x[205] 0
x[206] 0
x[207] 0
x[208] 0
x[209] 1
x[210] 0
x[211] 1
x[212] 0
x[213] 0
x[214] 1
x[215] 1
x[216] 0
x[217] 0
x[218] 0
x[219] 0
x[220] 1
x[221] 1
x[222] 0
x[223] 1
x[224] 1
x[225] 1
x[226] 1
x[227] 1
x[228] 1
x[229] 1
x[230] 1
x[231] 1
x[232] 1
x[233] 0
x[234] 1
x[235] 1
x[236] 1
x[237] 0
x[238] 1
x[239] 1
x[240] 0
x[241] 1
x[242] 1
x[243] 0
x[244] 1
x[245] 1
x[246] 1
x[247] 1
x[248] 1
x[249] 1
x[250] 1
x[251] 0
x[252] 0
x[253] 0
x[254] 0
x[255] 0
x[256] 0
x[257] 0
x[258] 1
x[259] 1
x[260] 0
x[261] 1
x[262] 1
x[263] 1
x[264] 1
x[265] 1
x[266] 0
x[267] 0
x[268] 1
x[269] 1
x[270] 1
x[271] 0
x[272] 1
x[273] 1
x[274] 0
x[275] 0
x[276] 1
x[277] 0
x[278] 1
x[279] 0
x[280] 0
x[281] 1
x[282] 1
x[283] 1
x[284] 1
x[285] 1
x[286] 1
x[287] 0
x[288] 1
x[289] 1
x[290] 0
x[291] 1
x[292] 1
x[293] 1
x[294] 1
x[295] 0
x[296] 0
x[297] 0
x[298] 1
x[299] 1
x[300] 0
x[301] 1
x[302] 1
x[303] 1
x[304] 0
x[305] 0
x[306] 1
x[307] 0
x[308] 1
x[309] 0
x[310] 1
x[311] 0
x[312] 0
x[313] 1
x[314] 1
x[315] 1
x[316] 1
x[317] 1
x[318] 1
x[319] 0
x[320] 0
x[321] 0
x[322] 0
x[323] 1
x[324] 1
x[325] 1
x[326] 1
x[327] 0
x[328] 1
x[329] 1
x[330] 0
x[331] 0
x[332] 0
x[333] 1
x[334] 0
x[335] 1
x[336] 1
x[337] 1
x[338] 1
x[339] 1
x[340] 1
x[341] 1
x[342] 1
x[343] 0
x[344] 0
x[345] 1
x[346] 0
x[347] 1
x[348] 1
x[349] 0
x[350] 0
x[351] 1
x[352] 1
x[353] 1
x[354] 0
x[355] 0
x[356] 0
x[357] 1
x[358] 1
x[359] 1
x[360] 1
x[361] 1
x[362] 1
x[363] 1
x[364] 0
x[365] 1
x[366] 0
x[367] 0
x[368] 0
x[369] 0
x[370] 1
x[371] 0
x[372] 0
x[373] 1
x[374] 1
x[375] 0
x[376] 1
x[377] 0
x[378] 0
x[379] 0
x[380] 0
x[381] 1
x[382] 0
x[383] 1
x[384] 1
x[385] 0
x[386] 1
x[387] 0
x[388] 0
x[389] 0
x[390] 0
x[391] 1
x[392] 1
x[393] 0
x[394] 1
x[395] 0
x[396] 1
x[397] 0
x[398] 0
x[399] 0
x[400] 1
x[401] 0
x[402] 0
x[403] 1
x[404] 1
x[405] 0
x[406] 1
x[407] 0
x[408] 0
x[409] 0
x[410] 1
x[411] 1
x[412] 0
x[413] 1
x[414] 1
x[415] 1
x[416] 0
x[417] 0
x[418] 1
x[419] 0
x[420] 1
x[421] 0
x[422] 0
x[423] 1
x[424] 0
x[425] 1
x[426] 0
x[427] 1
x[428] 1
x[429] 1
x[430] 1
x[431] 1
x[432] 1
x[433] 0
x[434] 1
x[435] 1
x[436] 0
x[437] 1
x[438] 1
x[439] 1
x[440] 1
x[441] 0
x[442] 0
x[443] 1
x[444] 0
x[445] 0
x[446] 1
x[447] 0
x[448] 1
x[449] 1
x[450] 0
x[451] 1
x[452] 0
x[453] 1
x[454] 0
x[455] 0
x[456] 0
x[457] 1
x[458] 1
x[459] 1
x[460] 0
x[461] 1
x[462] 1
x[463] 0
x[464] 1
x[465] 1
x[466] 0
x[467] 0
x[468] 1
x[469] 0
x[470] 1
x[471] 0
x[472] 1
x[473] 1
x[474] 1
x[475] 0
x[476] 1
x[477] 1
x[478] 1
x[479] 0
x[480] 1
x[481] 1
x[482] 0
x[483] 1
x[484] 0
x[485] 1
x[486] 0
x[487] 1
x[488] 1
x[489] 1
x[490] 1
x[491] 0
x[492] 1
x[493] 0
x[494] 1
x[495] 0
x[496] 1
x[497] 0
x[498] 0
x[499] 1
x[500] 1
x[501] 0
x[502] 0
x[503] 0
x[504] 0
x[505] 0
x[506] 0
x[507] 0
x[508] 1
x[509] 0
x[510] 0
x[511] 0
x[512] 1
x[513] 1
x[514] 0
x[515] 1
x[516] 1
x[517] 1
x[518] 0
x[519] 1
x[520] 1
x[521] 1
x[522] 0
x[523] 1
x[524] 1
x[525] 1
x[526] 0
x[527] 1
x[528] 0
x[529] 1
x[530] 1
x[531] 0
x[532] 1
x[533] 1
x[534] 0
x[535] 1
x[536] 1
x[537] 1
x[538] 1
x[539] 1
x[540] 1
x[541] 0
x[542] 0
x[543] 0
x[544] 0
x[545] 0
x[546] 1
x[547] 0
x[548] 1
x[549] 0
x[550] 1
x[551] 1
x[552] 0
x[553] 1
x[554] 1
x[555] 0
x[556] 0
x[557] 0
x[558] 0
x[559] 1
x[560] 0
x[561] 1
x[562] 0
x[563] 0
x[564] 0
x[565] 0
x[566] 0
x[567] 1
x[568] 1
x[569] 1
x[570] 1
x[571] 0
x[572] 1
x[573] 1
x[574] 1
x[575] 0
x[576] 1
x[577] 0
x[578] 1
x[579] 0
x[580] 1
x[581] 0
x[582] 0
x[583] 1
x[584] 1
x[585] 1
x[586] 0
x[587] 1
x[588] 1
x[589] 0
x[590] 1
x[591] 1
x[592] 1
x[593] 0
x[594] 1
x[595] 1
x[596] 0
x[597] 1
x[598] 0
x[599] 0
x[600] 0
x[601] 0
x[602] 0
x[603] 1
x[604] 1
x[605] 1
x[606] 1
x[607] 0
x[608] 1
x[609] 0
x[610] 1
x[611] 0
x[612] 1
x[613] 0
x[614] 1
x[615] 1
x[616] 1
x[617] 0
x[618] 1
x[619] 0
x[620] 1
x[621] 1
x[622] 0
x[623] 1
x[624] 0
x[625] 0
x[626] 1
x[627] 1
x[628] 0
x[629] 0
x[630] 1
x[631] 0
x[632] 0
x[633] 0
x[634] 1
x[635] 1
x[636] 0
x[637] 1
x[638] 0
x[639] 1
x[640] 0
x[641] 0
x[642] 0
x[643] 0
x[644] 0
x[645] 0
x[646] 1
x[647] 1
x[648] 1
x[649] 1
x[650] 0
x[651] 1
x[652] 1
x[653] 1
x[654] 1
x[655] 0
x[656] 1
x[657] 1
x[658] 0
x[659] 1
x[660] 0
x[661] 0
x[662] 0
x[663] 0
x[664] 1
x[665] 1
x[666] 1
x[667] 0
x[668] 1
x[669] 1
x[670] 0
x[671] 0
x[672] 1
x[673] 1
x[674] 1
x[675] 1
x[676] 1
x[677] 0
x[678] 1
x[679] 0
x[680] 0
x[681] 0
x[682] 1
x[683] 1
x[684] 0
x[685] 1
x[686] 0
x[687] 0
x[688] 0
x[689] 1
x[690] 1
x[691] 1
x[692] 1
x[693] 1
x[694] 0
x[695] 0
x[696] 1
x[697] 1
x[698] 1
x[699] 1
x[700] 1
x[701] 1
x[702] 0
x[703] 0
x[704] 0
x[705] 0
x[706] 0
x[707] 1
x[708] 1
x[709] 1
x[710] 1
x[711] 1
x[712] 1
x[713] 1
x[714] 0
x[715] 1
x[716] 0
x[717] 1
x[718] 0
x[719] 1
x[720] 0
x[721] 1
x[722] 1
x[723] 0
x[724] 1
x[725] 1
x[726] 0
x[727] 0
x[728] 1
x[729] 1
x[730] 1
x[731] 0
x[732] 1
x[733] 1
x[734] 1
x[735] 1
x[736] 0
x[737] 1
x[738] 1
x[739] 0
x[740] 1
x[741] 0
x[742] 0
x[743] 0
x[744] 1
x[745] 1
x[746] 0
x[747] 1
x[748] 1
x[749] 1
x[750] 1
x[751] 0
x[752] 1
x[753] 1
x[754] 1
x[755] 1
x[756] 1
x[757] 1
x[758] 0
x[759] 0
x[760] 1
x[761] 1
x[762] 1
x[763] 1
x[764] 0
x[765] 1
x[766] 0
x[767] 1
x[768] 1
x[769] 1
x[770] 1
x[771] 1
x[772] 1
x[773] 1
x[774] 1
x[775] 0
x[776] 1
x[777] 1
x[778] 1
x[779] 1
x[780] 0
x[781] 1
x[782] 1
x[783] 1
x[784] 0
x[785] 1
x[786] 1
x[787] 1
x[788] 1
x[789] 1
x[790] 1
x[791] 1
x[792] 1
x[793] 1
x[794] 0
x[795] 1
x[796] 0
x[797] 1
x[798] 0
x[799] 1
x[800] 0
x[801] 1
x[802] 1
x[803] 1
x[804] 1
x[805] 1
x[806] 0
x[807] 0
x[808] 1
x[809] 0
x[810] 1
x[811] 1
x[812] 1
x[813] 1
x[814] 1
x[815] 1
x[816] 1
x[817] 0
x[818] 1
x[819] 1
x[820] 0
x[821] 1
x[822] 1
x[823] 1
x[824] 1
x[825] 1
x[826] 0
x[827] 1
x[828] 0
x[829] 1
x[830] 0
x[831] 0
x[832] 1
x[833] 1
x[834] 0
x[835] 0
x[836] 0
x[837] 1
x[838] 1
x[839] 1
x[840] 1
x[841] 1
x[842] 1
x[843] 1
x[844] 0
x[845] 1
x[846] 1
x[847] 0
x[848] 1
x[849] 1
x[850] 0
x[851] 0
x[852] 1
x[853] 0
x[854] 0
x[855] 1
x[856] 0
x[857] 0
x[858] 1
x[859] 0
x[860] 1
x[861] 0
x[862] 0
x[863] 0
x[864] 1
x[865] 0
x[866] 1
x[867] 0
x[868] 1
x[869] 0
x[870] 1
x[871] 1
x[872] 0
x[873] 0
x[874] 1
x[875] 0
x[876] 0
x[877] 1
x[878] 0
x[879] 1
x[880] 0
x[881] 0
x[882] 0
x[883] 1
x[884] 0
x[885] 1
x[886] 0
x[887] 0
x[888] 1
x[889] 0
x[890] 0
x[891] 1
x[892] 0
x[893] 1
x[894] 1
x[895] 0
x[896] 1
x[897] 1
x[898] 1
x[899] 0
x[900] 0
x[901] 1
x[902] 1
x[903] 1
x[904] 1
x[905] 0
x[906] 0
x[907] 0
x[908] 1
x[909] 1
x[910] 1
x[911] 0
x[912] 0
x[913] 0
x[914] 0
x[915] 0
x[916] 1
x[917] 0
x[918] 1
x[919] 0
x[920] 1
x[921] 0
x[922] 0
x[923] 1
x[924] 1
x[925] 0
x[926] 1
x[927] 1
x[928] 1
x[929] 0
x[930] 1
x[931] 0
x[932] 1
x[933] 0
x[934] 1
x[935] 0
x[936] 1
x[937] 1
x[938] 0
x[939] 0
x[940] 0
x[941] 1
x[942] 1
x[943] 0
x[944] 1
x[945] 1
x[946] 1
x[947] 1
x[948] 1
x[949] 1
x[950] 0
x[951] 0
x[952] 0
x[953] 1
x[954] 1
x[955] 1
x[956] 1
x[957] 1
x[958] 1
x[959] 1
x[960] 0
x[961] 1
x[962] 1
x[963] 1
x[964] 1
x[965] 0
x[966] 0
x[967] 0
x[968] 1
x[969] 1
x[970] 1
x[971] 0
x[972] 0
x[973] 1
x[974] 1
x[975] 1
x[976] 1
x[977] 0
x[978] 0
x[979] 0
x[980] 0
x[981] 0
x[982] 0
x[983] 0
x[984] 1
x[985] 0
x[986] 1
x[987] 0
x[988] 0
x[989] 0
x[990] 1
x[991] 0
x[992] 1
x[993] 1
x[994] 0
x[995] 0
x[996] 0
x[997] 1
x[998] 1
x[999] 0
